p edge 140 980
e 1 18
e 1 42
e 1 49
e 1 60
e 1 68
e 1 123
e 1 132
e 2 41
e 2 73
e 2 87
e 2 97
e 2 97
e 2 102
e 2 130
e 3 7
e 3 16
e 3 26
e 3 55
e 3 90
e 3 97
e 3 139
e 4 2
e 4 6
e 4 107
e 4 112
e 4 121
e 4 125
e 4 140
e 5 4
e 5 15
e 5 42
e 5 59
e 5 67
e 5 93
e 5 104
e 6 2
e 6 12
e 6 19
e 6 48
e 6 51
e 6 83
e 6 112
e 7 25
e 7 33
e 7 57
e 7 85
e 7 110
e 7 120
e 7 131
e 8 12
e 8 17
e 8 32
e 8 120
e 8 126
e 8 132
e 8 140
e 9 1
e 9 14
e 9 15
e 9 22
e 9 41
e 9 112
e 9 125
e 10 50
e 10 59
e 10 89
e 10 104
e 10 106
e 10 137
e 10 137
e 11 14
e 11 25
e 11 29
e 11 30
e 11 100
e 11 108
e 11 122
e 12 13
e 12 19
e 12 21
e 12 36
e 12 75
e 12 120
e 12 130
e 13 27
e 13 46
e 13 60
e 13 62
e 13 62
e 13 121
e 13 138
e 14 21
e 14 31
e 14 31
e 14 37
e 14 82
e 14 88
e 14 114
e 15 17
e 15 20
e 15 89
e 15 98
e 15 102
e 15 106
e 15 110
e 16 45
e 16 62
e 16 69
e 16 69
e 16 78
e 16 107
e 16 119
e 17 41
e 17 60
e 17 72
e 17 95
e 17 102
e 17 122
e 17 138
e 18 27
e 18 34
e 18 66
e 18 84
e 18 104
e 18 123
e 18 133
e 19 3
e 19 12
e 19 21
e 19 26
e 19 113
e 19 120
e 19 139
e 20 7
e 20 29
e 20 34
e 20 50
e 20 120
e 20 134
e 20 139
e 21 7
e 21 40
e 21 43
e 21 53
e 21 74
e 21 104
e 21 124
e 22 10
e 22 20
e 22 43
e 22 72
e 22 80
e 22 102
e 22 108
e 23 15
e 23 20
e 23 36
e 23 71
e 23 81
e 23 96
e 23 119
e 24 43
e 24 46
e 24 85
e 24 110
e 24 110
e 24 118
e 24 134
e 25 3
e 25 22
e 25 27
e 25 91
e 25 97
e 25 100
e 25 120
e 26 13
e 26 67
e 26 72
e 26 110
e 26 112
e 26 118
e 26 125
e 27 8
e 27 16
e 27 58
e 27 62
e 27 85
e 27 87
e 27 139
e 28 26
e 28 33
e 28 71
e 28 96
e 28 102
e 28 118
e 28 121
e 29 43
e 29 56
e 29 59
e 29 77
e 29 78
e 29 96
e 29 139
e 30 18
e 30 38
e 30 71
e 30 85
e 30 92
e 30 126
e 30 137
e 31 41
e 31 57
e 31 58
e 31 101
e 31 107
e 31 130
e 31 131
e 32 10
e 32 15
e 32 34
e 32 56
e 32 71
e 32 78
e 32 130
e 33 14
e 33 99
e 33 104
e 33 120
e 33 128
e 33 129
e 33 131
e 34 31
e 34 36
e 34 56
e 34 84
e 34 94
e 34 99
e 34 126
e 35 21
e 35 24
e 35 32
e 35 50
e 35 69
e 35 106
e 35 107
e 36 10
e 36 12
e 36 19
e 36 30
e 36 35
e 36 70
e 36 92
e 37 4
e 37 24
e 37 33
e 37 39
e 37 72
e 37 104
e 37 119
e 38 85
e 38 98
e 38 119
e 38 126
e 38 127
e 38 127
e 38 129
e 39 36
e 39 64
e 39 77
e 39 83
e 39 95
e 39 124
e 39 131
e 40 12
e 40 29
e 40 69
e 40 101
e 40 114
e 40 117
e 40 130
e 41 7
e 41 25
e 41 55
e 41 77
e 41 98
e 41 128
e 41 139
e 42 3
e 42 13
e 42 74
e 42 88
e 42 117
e 42 129
e 42 133
e 43 11
e 43 31
e 43 96
e 43 96
e 43 116
e 43 127
e 43 138
e 44 23
e 44 50
e 44 53
e 44 74
e 44 92
e 44 139
e 44 140
e 45 18
e 45 29
e 45 52
e 45 57
e 45 67
e 45 69
e 45 119
e 46 7
e 46 54
e 46 80
e 46 93
e 46 109
e 46 117
e 46 118
e 47 6
e 47 14
e 47 28
e 47 65
e 47 82
e 47 116
e 47 127
e 48 22
e 48 57
e 48 68
e 48 70
e 48 113
e 48 124
e 48 140
e 49 1
e 49 19
e 49 35
e 49 42
e 49 110
e 49 118
e 49 127
e 50 43
e 50 47
e 50 53
e 50 82
e 50 109
e 50 133
e 50 137
e 51 18
e 51 36
e 51 37
e 51 61
e 51 67
e 51 111
e 51 115
e 52 18
e 52 23
e 52 36
e 52 49
e 52 54
e 52 57
e 52 112
e 53 22
e 53 38
e 53 43
e 53 80
e 53 91
e 53 105
e 53 139
e 54 8
e 54 12
e 54 55
e 54 74
e 54 84
e 54 118
e 54 138
e 55 35
e 55 39
e 55 76
e 55 94
e 55 118
e 55 120
e 55 121
e 56 7
e 56 28
e 56 51
e 56 68
e 56 87
e 56 95
e 56 125
e 57 3
e 57 7
e 57 16
e 57 36
e 57 38
e 57 51
e 57 134
e 58 14
e 58 17
e 58 49
e 58 97
e 58 104
e 58 110
e 58 117
e 59 49
e 59 108
e 59 113
e 59 115
e 59 116
e 59 119
e 59 129
e 60 4
e 60 12
e 60 22
e 60 67
e 60 115
e 60 131
e 60 133
e 61 54
e 61 56
e 61 72
e 61 95
e 61 106
e 61 115
e 61 128
e 62 19
e 62 63
e 62 65
e 62 70
e 62 97
e 62 108
e 62 114
e 63 3
e 63 18
e 63 21
e 63 77
e 63 98
e 63 99
e 63 135
e 64 41
e 64 59
e 64 86
e 64 86
e 64 106
e 64 133
e 64 139
e 65 28
e 65 32
e 65 46
e 65 49
e 65 82
e 65 85
e 65 108
e 66 35
e 66 38
e 66 79
e 66 84
e 66 100
e 66 102
e 66 135
e 67 6
e 67 11
e 67 15
e 67 25
e 67 32
e 67 97
e 67 132
e 68 19
e 68 20
e 68 39
e 68 54
e 68 71
e 68 136
e 68 138
e 69 26
e 69 49
e 69 54
e 69 64
e 69 108
e 69 116
e 69 136
e 70 3
e 70 39
e 70 63
e 70 65
e 70 94
e 70 112
e 70 134
e 71 12
e 71 16
e 71 21
e 71 57
e 71 97
e 71 103
e 71 104
e 72 14
e 72 19
e 72 75
e 72 85
e 72 100
e 72 110
e 72 129
e 73 9
e 73 43
e 73 62
e 73 81
e 73 105
e 73 115
e 73 138
e 74 10
e 74 16
e 74 33
e 74 82
e 74 112
e 74 131
e 74 135
e 75 6
e 75 54
e 75 58
e 75 63
e 75 68
e 75 80
e 75 118
e 76 37
e 76 38
e 76 74
e 76 103
e 76 105
e 76 114
e 76 125
e 77 51
e 77 57
e 77 69
e 77 76
e 77 88
e 77 99
e 77 128
e 78 7
e 78 26
e 78 32
e 78 33
e 78 42
e 78 57
e 78 124
e 79 28
e 79 60
e 79 74
e 79 89
e 79 95
e 79 122
e 79 137
e 80 16
e 80 29
e 80 64
e 80 73
e 80 126
e 80 130
e 80 139
e 81 4
e 81 5
e 81 34
e 81 37
e 81 72
e 81 96
e 81 121
e 82 31
e 82 55
e 82 72
e 82 79
e 82 111
e 82 120
e 82 132
e 83 10
e 83 12
e 83 15
e 83 46
e 83 94
e 83 111
e 83 123
e 84 5
e 84 13
e 84 22
e 84 50
e 84 108
e 84 121
e 84 122
e 85 11
e 85 20
e 85 23
e 85 39
e 85 46
e 85 76
e 85 122
e 86 9
e 86 18
e 86 35
e 86 82
e 86 101
e 86 115
e 86 134
e 87 54
e 87 57
e 87 78
e 87 81
e 87 107
e 87 111
e 87 128
e 88 27
e 88 36
e 88 50
e 88 50
e 88 59
e 88 93
e 88 111
e 89 1
e 89 54
e 89 64
e 89 64
e 89 66
e 89 80
e 89 83
e 90 11
e 90 12
e 90 43
e 90 89
e 90 103
e 90 122
e 90 127
e 91 8
e 91 32
e 91 72
e 91 102
e 91 113
e 91 132
e 91 140
e 92 1
e 92 40
e 92 66
e 92 88
e 92 106
e 92 124
e 92 127
e 93 8
e 93 21
e 93 59
e 93 75
e 93 123
e 93 129
e 93 136
e 94 14
e 94 68
e 94 71
e 94 79
e 94 81
e 94 96
e 94 136
e 95 22
e 95 36
e 95 37
e 95 61
e 95 62
e 95 62
e 95 92
e 96 8
e 96 17
e 96 35
e 96 56
e 96 79
e 96 123
e 96 139
e 97 8
e 97 10
e 97 28
e 97 42
e 97 62
e 97 102
e 97 116
e 98 5
e 98 24
e 98 44
e 98 59
e 98 70
e 98 86
e 98 140
e 99 15
e 99 25
e 99 90
e 99 105
e 99 116
e 99 122
e 99 126
e 100 24
e 100 26
e 100 55
e 100 74
e 100 76
e 100 92
e 100 115
e 101 10
e 101 17
e 101 53
e 101 95
e 101 100
e 101 105
e 101 129
e 102 21
e 102 33
e 102 48
e 102 66
e 102 114
e 102 121
e 102 132
e 103 5
e 103 22
e 103 39
e 103 43
e 103 68
e 103 102
e 103 124
e 104 4
e 104 54
e 104 91
e 104 98
e 104 102
e 104 109
e 104 127
e 105 14
e 105 16
e 105 74
e 105 93
e 105 103
e 105 129
e 105 131
e 106 10
e 106 21
e 106 57
e 106 62
e 106 78
e 106 83
e 106 129
e 107 1
e 107 6
e 107 44
e 107 81
e 107 109
e 107 126
e 107 138
e 108 30
e 108 36
e 108 36
e 108 49
e 108 53
e 108 65
e 108 90
e 109 16
e 109 17
e 109 19
e 109 25
e 109 27
e 109 59
e 109 130
e 110 18
e 110 21
e 110 34
e 110 120
e 110 121
e 110 127
e 110 127
e 111 22
e 111 24
e 111 43
e 111 49
e 111 60
e 111 81
e 111 133
e 112 23
e 112 23
e 112 24
e 112 47
e 112 70
e 112 84
e 112 87
e 113 8
e 113 8
e 113 60
e 113 84
e 113 90
e 113 93
e 113 132
e 114 14
e 114 46
e 114 70
e 114 108
e 114 108
e 114 136
e 114 138
e 115 2
e 115 17
e 115 18
e 115 55
e 115 64
e 115 69
e 115 125
e 116 42
e 116 85
e 116 88
e 116 107
e 116 115
e 116 134
e 116 140
e 117 22
e 117 45
e 117 49
e 117 52
e 117 71
e 117 80
e 117 122
e 118 8
e 118 9
e 118 36
e 118 39
e 118 90
e 118 105
e 118 128
e 119 3
e 119 45
e 119 53
e 119 111
e 119 128
e 119 135
e 119 135
e 120 6
e 120 10
e 120 63
e 120 73
e 120 126
e 120 129
e 120 133
e 121 29
e 121 33
e 121 39
e 121 40
e 121 73
e 121 82
e 121 103
e 122 2
e 122 19
e 122 56
e 122 62
e 122 84
e 122 112
e 122 118
e 123 33
e 123 53
e 123 57
e 123 60
e 123 79
e 123 118
e 123 125
e 124 33
e 124 35
e 124 41
e 124 42
e 124 43
e 124 49
e 124 62
e 125 19
e 125 26
e 125 42
e 125 48
e 125 106
e 125 117
e 125 126
e 126 16
e 126 27
e 126 33
e 126 55
e 126 66
e 126 80
e 126 134
e 127 34
e 127 70
e 127 87
e 127 104
e 127 117
e 127 117
e 127 139
e 128 5
e 128 9
e 128 74
e 128 89
e 128 90
e 128 94
e 128 101
e 129 32
e 129 53
e 129 54
e 129 76
e 129 117
e 129 126
e 129 138
e 130 6
e 130 10
e 130 29
e 130 51
e 130 58
e 130 63
e 130 88
e 131 36
e 131 41
e 131 61
e 131 87
e 131 98
e 131 115
e 131 130
e 132 12
e 132 23
e 132 24
e 132 24
e 132 60
e 132 69
e 132 127
e 133 11
e 133 29
e 133 33
e 133 45
e 133 106
e 133 112
e 133 116
e 134 62
e 134 65
e 134 71
e 134 91
e 134 109
e 134 121
e 134 122
e 135 10
e 135 27
e 135 49
e 135 51
e 135 53
e 135 118
e 135 126
e 136 1
e 136 25
e 136 32
e 136 37
e 136 71
e 136 113
e 136 125
e 137 24
e 137 25
e 137 26
e 137 92
e 137 94
e 137 128
e 137 131
e 138 24
e 138 37
e 138 46
e 138 69
e 138 113
e 138 120
e 138 122
e 139 16
e 139 37
e 139 87
e 139 111
e 139 125
e 139 130
e 139 136
e 140 26
e 140 40
e 140 50
e 140 76
e 140 108
e 140 114
e 140 134
